p cep 250 1045
1 5
1 6
1 8
1 9
1 15
1 17
1 20
1 21
1 23
1 24
2 3
2 4
2 5
2 12
2 13
2 14
2 16
2 17
2 18
2 19
2 21
2 22
2 24
3 4
3 5
3 12
3 13
3 16
3 18
3 21
4 5
4 11
4 12
4 13
4 14
4 16
4 18
4 19
4 21
5 6
5 9
5 12
5 15
5 17
5 18
5 20
5 21
5 24
6 20
8 17
8 20
8 23
8 24
9 17
9 20
11 13
11 16
12 14
12 16
12 18
12 19
12 21
13 14
13 16
14 16
14 19
15 20
16 18
16 19
16 21
17 18
17 20
17 21
17 23
17 24
18 19
18 21
20 21
20 23
20 24
21 22
21 24
26 29
26 32
26 37
26 38
26 43
26 46
26 47
26 48
26 49
26 50
27 50
28 34
28 35
28 38
28 43
28 46
28 47
28 49
28 50
29 37
29 38
29 47
29 49
30 31
30 32
30 36
30 37
30 43
30 44
30 47
30 49
31 32
31 42
32 37
32 38
32 43
32 44
32 47
32 48
32 49
32 50
33 37
33 38
33 43
33 47
33 50
34 35
34 38
34 43
34 46
34 47
34 50
35 38
35 43
35 46
35 47
35 50
36 44
36 48
37 38
37 43
37 44
37 45
37 48
37 49
38 43
38 46
38 47
38 49
38 50
39 43
39 47
40 42
41 46
41 47
42 43
42 45
43 44
43 46
43 47
43 49
43 50
44 47
44 48
44 49
45 48
46 47
46 50
47 49
47 50
48 49
49 50
51 53
51 54
51 55
51 60
51 61
51 62
51 66
51 72
51 74
51 75
52 56
53 54
53 55
53 57
53 60
53 63
53 66
53 68
53 71
53 72
53 73
53 74
53 75
54 55
54 60
54 66
54 72
54 75
55 60
55 66
55 72
55 75
56 63
56 65
57 60
57 62
57 72
57 73
57 74
57 75
58 70
59 61
59 71
59 73
60 62
60 63
60 66
60 67
60 68
60 69
60 71
60 72
60 73
60 74
60 75
61 62
61 64
61 71
61 74
62 63
62 64
62 67
62 69
62 73
62 74
63 66
63 68
63 71
63 73
63 74
64 71
65 73
66 68
66 71
66 72
66 74
66 75
67 68
67 69
67 72
67 73
67 74
68 69
68 71
68 73
68 74
69 72
69 73
69 74
71 73
71 74
72 75
73 74
74 75
76 78
76 81
76 82
76 84
76 88
76 89
76 93
76 94
76 98
77 78
77 80
77 81
77 82
77 83
77 86
77 87
77 88
77 89
77 91
77 92
77 93
77 94
77 95
77 96
77 97
78 79
78 81
78 82
78 83
78 84
78 85
78 88
78 89
78 90
78 91
78 92
78 93
78 94
78 96
78 97
78 98
78 99
78 100
79 81
79 82
79 83
79 85
79 88
79 89
79 90
79 92
79 93
79 94
79 97
79 98
79 100
80 83
80 86
80 87
80 92
80 96
81 82
81 83
81 84
81 85
81 88
81 89
81 90
81 91
81 92
81 93
81 94
81 97
81 98
81 99
81 100
82 83
82 84
82 85
82 88
82 89
82 90
82 91
82 92
82 93
82 94
82 97
82 98
82 99
82 100
83 85
83 87
83 88
83 89
83 90
83 91
83 92
83 93
83 94
83 96
83 97
83 98
83 99
83 100
84 88
84 89
84 93
84 94
84 98
85 88
85 89
85 90
85 92
85 93
85 94
85 97
85 98
85 100
86 87
86 95
87 92
87 96
88 89
88 90
88 91
88 92
88 93
88 94
88 97
88 98
88 99
88 100
89 90
89 91
89 92
89 93
89 94
89 97
89 98
89 99
89 100
90 92
90 93
90 94
90 97
90 98
90 100
91 92
91 93
91 94
91 96
91 97
91 99
91 100
92 93
92 94
92 96
92 97
92 98
92 99
92 100
93 94
93 97
93 98
93 99
93 100
94 97
94 98
94 99
94 100
96 97
97 98
97 100
98 99
98 100
101 105
101 106
101 109
101 111
101 112
101 113
101 115
101 117
101 118
101 120
101 121
101 122
101 123
101 125
102 105
102 110
102 114
102 116
102 117
103 105
103 106
103 117
103 118
103 119
104 105
104 106
104 111
104 112
104 117
104 119
105 106
105 111
105 112
105 115
105 117
105 118
105 119
105 122
105 123
105 125
106 109
106 110
106 111
106 112
106 113
106 115
106 117
106 118
106 119
106 120
106 122
106 123
106 125
107 114
107 124
108 120
109 114
109 115
109 120
109 121
109 122
109 123
110 115
110 118
110 123
110 125
111 112
111 117
111 118
111 119
112 115
112 117
112 118
112 119
112 120
112 123
112 125
113 114
113 117
113 120
113 121
113 123
113 124
114 121
114 124
115 117
115 118
115 120
115 122
115 123
116 123
117 118
117 119
117 122
117 123
118 119
118 122
118 123
119 122
120 123
120 125
122 123
123 124
123 125
126 133
126 138
126 140
126 141
126 143
126 148
126 149
127 134
127 149
128 133
128 136
128 140
129 133
129 138
129 139
129 142
129 148
130 131
130 134
130 149
133 137
133 138
133 143
133 148
133 150
134 149
135 148
137 140
137 143
137 149
137 150
138 139
138 147
138 148
139 142
139 147
139 148
139 149
140 143
140 149
141 149
142 148
143 149
147 148
148 150
151 154
151 156
151 157
151 158
151 159
151 161
151 162
151 166
151 167
151 169
151 170
151 175
152 156
152 158
152 161
152 166
153 154
153 156
153 158
153 161
153 162
153 166
153 169
153 170
153 174
153 175
154 156
154 159
154 161
154 162
154 166
154 167
154 169
154 170
154 174
154 175
155 156
155 158
155 161
155 162
155 163
155 165
155 166
155 168
155 169
155 170
155 171
155 172
155 173
155 175
156 158
156 159
156 161
156 162
156 163
156 165
156 166
156 168
156 169
156 170
156 175
157 158
157 159
157 161
157 162
157 167
157 170
158 161
158 162
158 163
158 165
158 166
158 168
158 169
158 170
158 171
158 172
158 173
158 175
159 161
159 165
159 166
159 169
160 164
161 162
161 165
161 166
161 167
161 168
161 169
161 170
161 172
161 173
161 175
162 165
162 166
162 167
162 169
162 170
163 168
163 170
163 171
163 175
164 168
164 173
164 174
164 175
165 166
165 168
165 169
165 170
166 167
166 169
166 170
168 169
168 170
168 171
168 172
168 173
168 175
169 170
169 175
170 172
170 173
170 175
171 172
172 173
172 174
173 174
174 175
176 180
176 181
176 182
176 184
176 185
176 186
176 188
176 191
176 195
176 196
176 198
176 199
176 200
178 181
178 184
178 186
178 196
179 182
179 185
180 181
180 184
180 186
180 188
180 191
180 195
180 196
180 199
181 184
181 185
181 186
181 187
181 188
181 191
181 194
181 195
181 196
181 199
181 200
182 185
182 191
182 192
182 198
183 188
183 194
184 186
184 188
184 195
184 196
184 199
184 200
185 187
185 190
185 191
185 193
185 195
185 198
186 187
186 188
186 196
186 199
187 191
187 195
187 198
188 191
188 194
188 195
188 196
188 199
191 195
191 196
191 198
191 200
194 199
195 196
195 200
196 199
201 202
201 203
201 205
201 206
201 207
201 208
201 209
201 212
201 213
201 215
201 217
201 218
201 220
201 221
201 222
201 223
201 225
202 203
202 204
202 205
202 206
202 207
202 208
202 209
202 210
202 212
202 213
202 214
202 215
202 217
202 218
202 219
202 220
202 221
202 222
202 223
202 224
202 225
203 206
203 208
203 215
203 216
203 218
203 220
203 221
203 222
204 208
204 210
204 213
204 218
204 219
204 222
205 207
205 208
205 210
205 212
205 213
205 214
205 217
205 218
205 219
205 220
205 222
205 223
205 224
205 225
206 208
206 215
206 216
206 217
206 220
206 221
206 223
206 225
207 208
207 210
207 212
207 213
207 214
207 217
207 218
207 219
207 220
207 222
207 223
207 224
207 225
208 209
208 210
208 212
208 213
208 214
208 215
208 217
208 218
208 219
208 220
208 221
208 222
208 223
208 224
208 225
209 215
209 220
209 221
209 222
209 223
209 225
210 212
210 213
210 214
210 217
210 219
210 220
210 222
210 223
210 225
211 216
211 222
212 213
212 214
212 217
212 218
212 219
212 220
212 222
212 223
212 224
212 225
213 214
213 215
213 217
213 218
213 219
213 220
213 221
213 222
213 223
213 224
213 225
214 216
214 217
214 218
214 219
214 220
214 222
214 224
214 225
215 216
215 220
215 221
215 222
215 223
215 225
216 218
216 220
216 221
216 222
216 225
217 218
217 219
217 220
217 222
217 223
217 224
217 225
218 219
218 220
218 221
218 222
218 224
218 225
219 220
219 222
219 223
219 225
220 221
220 222
220 223
220 225
221 222
221 225
222 223
222 224
222 225
223 225
224 225
226 229
226 248
227 228
227 229
227 232
227 234
227 235
227 236
227 239
228 229
228 232
228 234
228 240
228 242
228 243
228 245
228 247
228 248
228 249
229 232
229 234
229 240
229 243
229 248
230 232
230 248
231 232
231 237
231 240
231 247
231 249
232 234
232 237
232 238
232 240
232 242
232 243
232 247
232 248
232 249
234 242
236 239
237 240
237 243
237 247
237 249
237 250
238 242
238 247
240 243
240 247
240 248
240 249
242 247
242 249
243 247
243 249
247 249
247 250
249 250
